0 40 53 51 0 0 0 0
0 50 51 56 0 53 0 0
0 49 32 30 0 0 51 1
0 38 47 37 0 50 56 1
0 50 45 48 0 104 0 0
0 60 45 48 33 131 48 0
0 39 56 36 40 0 0 1
0 33 51 56 40 0 36 1
0 59 59 35 50 39 0 0
0 60 57 57 -40 -40 -1 -1
1 60 57 57 0 0 0 0
0 49 43 53 50 33 36 0
0 58 38 52 -40 -40 -1 -1
1 58 38 52 0 1 57 1
0 42 38 30 50 33 89 0
0 55 36 47 -40 -40 -1 -1
1 55 36 47 0 59 0 0
0 51 43 57 -40 -40 -1 -1
1 51 43 57 0 95 0 0
0 40 33 57 -40 -40 -1 -1
1 40 33 57 0 95 57 0
0 55 34 52 -40 -40 -1 -1
1 55 34 52 0 138 0 0
0 55 57 37 -40 -40 -1 -1
1 55 57 37 55 57 0 0
0 42 39 32 -40 -40 -1 -1
1 42 39 32 55 57 37 0
0 33 40 60 -40 -40 -1 -1
1 33 40 60 55 114 0 0
0 48 56 50 -40 -40 -1 -1
1 48 56 50 60 0 0 1
0 42 56 44 -40 -40 -1 -1
1 42 56 44 -40 -40 -1 -1
2 42 56 44 0 0 0 0
0 34 48 45 -40 -40 -1 -1
1 34 48 45 60 0 50 1
0 36 37 57 -40 -40 -1 -1
1 36 37 57 -40 -40 -1 -1
2 36 37 57 0 0 44 0
0 37 55 30 -40 -40 -1 -1
1 37 55 30 -40 -40 -1 -1
2 37 55 30 0 56 0 0
0 42 54 36 -40 -40 -1 -1
1 42 54 36 -40 -40 -1 -1
2 42 54 36 0 111 0 0
0 35 45 60 -40 -40 -1 -1
1 35 45 60 -40 -40 -1 -1
2 35 45 60 0 111 36 0
0 40 39 32 -40 -40 -1 -1
1 40 39 32 -40 -40 -1 -1
2 40 39 32 37 56 0 0
0 40 50 59 -40 -40 -1 -1
1 40 50 59 -40 -40 -1 -1
2 40 50 59 0 56 32 0
0 56 39 42 -40 -40 -1 -1
1 56 39 42 -40 -40 -1 -1
2 56 39 42 42 0 0 0
0 58 34 59 -40 -40 -1 -1
1 58 34 59 -40 -40 -1 -1
2 58 34 59 36 0 44 0
0 38 37 51 -40 -40 -1 -1
1 38 37 51 53 56 69 0
0 53 46 31 -40 -40 -1 -1
1 53 46 31 -40 -40 -1 -1
2 53 46 31 42 95 0 0
0 52 50 58 -40 -40 -1 -1
1 52 50 58 -40 -40 -1 -1
2 52 50 58 -40 -40 -1 -1
3 52 50 58 0 0 0 0
0 32 47 35 -40 -40 -1 -1
1 32 47 35 0 59 47 1
0 47 30 34 -40 -40 -1 -1
1 47 30 34 0 138 52 0
0 51 31 40 -40 -40 -1 -1
1 51 31 40 -40 -40 -1 -1
2 51 31 40 40 56 32 1
0 60 54 54 -40 -40 -1 -1
1 60 54 54 -40 -40 -1 -1
2 60 54 54 -40 -40 -1 -1
3 60 54 54 0 43 58 0
0 56 45 33 -40 -40 -1 -1
1 56 45 33 -40 -40 -1 -1
2 56 45 33 -40 -40 -1 -1
3 56 45 33 0 97 0 0
0 47 42 49 -40 -40 -1 -1
1 47 42 49 -40 -40 -1 -1
2 47 42 49 -40 -40 -1 -1
3 47 42 49 56 97 0 0
0 46 52 37 -40 -40 -1 -1
1 46 52 37 -40 -40 -1 -1
2 46 52 37 -40 -40 -1 -1
3 46 52 37 60 0 0 0
0 46 40 60 -40 -40 -1 -1
1 46 40 60 -40 -40 -1 -1
2 46 40 60 -40 -40 -1 -1
3 46 40 60 0 97 33 0
0 38 47 53 -40 -40 -1 -1
1 38 47 53 -40 -40 -1 -1
2 38 47 53 77 39 0 0
0 49 42 40 -40 -40 -1 -1
1 49 42 40 -40 -40 -1 -1
2 49 42 40 -40 -40 -1 -1
3 49 42 40 60 0 37 1
0 55 35 44 -40 -40 -1 -1
1 55 35 44 -40 -40 -1 -1
2 55 35 44 42 141 0 0
0 55 43 35 -40 -40 -1 -1
1 55 43 35 -40 -40 -1 -1
2 55 43 35 -40 -40 -1 -1
3 55 43 35 -40 -40 -1 -1
4 55 43 35 0 0 0 0
0 41 58 36 -40 -40 -1 -1
2 41 58 36 -40 -40 -1 -1
3 41 58 36 -40 -40 -1 -1
4 41 58 36 0 43 0 0
0 45 45 58 -40 -40 -1 -1
2 45 45 58 -40 -40 -1 -1
3 45 45 58 -40 -40 -1 -1
4 45 45 58 0 0 36 0
0 36 47 32 -40 -40 -1 -1
2 36 47 32 -40 -40 -1 -1
3 36 47 32 0 0 58 1
0 37 54 34 -40 -40 -1 -1
2 37 54 34 -40 -40 -1 -1
3 37 54 34 56 139 0 1
0 49 51 42 -40 -40 -1 -1
2 49 51 42 -40 -40 -1 -1
3 49 51 42 -40 -40 -1 -1
4 49 51 42 0 101 0 0
0 50 31 52 -40 -40 -1 -1
2 50 31 52 41 141 44 0
0 54 35 59 -40 -40 -1 -1
2 54 35 59 -40 -40 -1 -1
3 54 35 59 60 52 0 0
0 49 54 45 -40 -40 -1 -1
2 49 54 45 -40 -40 -1 -1
3 49 54 45 -40 -40 -1 -1
4 49 54 45 41 45 0 1
0 53 38 50 -40 -40 -1 -1
2 53 38 50 -40 -40 -1 -1
3 53 38 50 -40 -40 -1 -1
4 53 38 50 39 45 45 0
0 47 40 35 -40 -40 -1 -1
2 47 40 35 -40 -40 -1 -1
3 47 40 35 -40 -40 -1 -1
4 47 40 35 0 99 42 0
0 54 42 48 -40 -40 -1 -1
2 54 42 48 -40 -40 -1 -1
3 54 42 48 -40 -40 -1 -1
4 54 42 48 49 94 0 0
0 55 44 40 -40 -40 -1 -1
2 55 44 40 -40 -40 -1 -1
3 55 44 40 -40 -40 -1 -1
4 55 44 40 -40 -40 -1 -1
5 55 44 40 0 0 0 0
0 43 51 56 -40 -40 -1 -1
3 43 51 56 -40 -40 -1 -1
4 43 51 56 47 83 48 1
0 30 36 49 -40 -40 -1 -1
3 30 36 49 0 142 0 1
0 43 44 39 -40 -40 -1 -1
3 43 44 39 -40 -40 -1 -1
4 43 44 39 -40 -40 -1 -1
5 43 44 39 0 44 0 0
0 40 35 31 -40 -40 -1 -1
3 40 35 31 56 97 49 0
0 50 38 50 -40 -40 -1 -1
3 50 38 50 -40 -40 -1 -1
4 50 38 50 49 136 0 0
0 46 31 30 -40 -40 -1 -1
3 46 31 30 55 139 34 0
0 32 44 47 -40 -40 -1 -1
3 32 44 47 67 50 59 1
0 31 44 58 -40 -40 -1 -1
3 31 44 58 -40 -40 -1 -1
4 31 44 58 0 45 36 0
0 39 56 58 -40 -40 -1 -1
3 39 56 58 -40 -40 -1 -1
4 39 56 58 55 0 0 1
0 46 60 59 -40 -40 -1 -1
3 46 60 59 -40 -40 -1 -1
4 46 60 59 -40 -40 -1 -1
5 46 60 59 0 81 39 0
0 51 38 30 -40 -40 -1 -1
3 51 38 30 -40 -40 -1 -1
4 51 38 30 47 132 50 0
0 34 31 56 -40 -40 -1 -1
3 34 31 56 -40 -40 -1 -1
4 34 31 56 55 0 58 0
0 53 42 43 -40 -40 -1 -1
3 53 42 43 -40 -40 -1 -1
4 53 42 43 -40 -40 -1 -1
5 53 42 43 0 0 40 1
0 60 44 40 -40 -40 -1 -1
3 60 44 40 -40 -40 -1 -1
4 60 44 40 -40 -40 -1 -1
5 60 44 40 12 132 98 0
0 58 31 41 -40 -40 -1 -1
3 58 31 41 -40 -40 -1 -1
4 58 31 41 -40 -40 -1 -1
5 58 31 41 43 44 0 0
0 40 48 48 -40 -40 -1 -1
3 40 48 48 -40 -40 -1 -1
4 40 48 48 -40 -40 -1 -1
5 40 48 48 46 75 0 0
0 54 52 30 -40 -40 -1 -1
3 54 52 30 -40 -40 -1 -1
4 54 52 30 -40 -40 -1 -1
5 54 52 30 -40 -40 -1 -1
6 54 52 30 0 0 0 0
0 44 34 55 -40 -40 -1 -1
3 44 34 55 -40 -40 -1 -1
5 44 34 55 46 75 48 1
0 35 38 41 -40 -40 -1 -1
3 35 38 41 60 0 77 0
0 56 51 43 -40 -40 -1 -1
3 56 51 43 -40 -40 -1 -1
5 56 51 43 -40 -40 -1 -1
6 56 51 43 0 52 0 0
0 35 39 34 -40 -40 -1 -1
3 35 39 34 -40 -40 -1 -1
5 35 39 34 0 0 83 0
0 44 48 50 -40 -40 -1 -1
3 44 48 50 -40 -40 -1 -1
5 44 48 50 72 123 0 0
0 30 40 42 -40 -40 -1 -1
3 30 40 42 55 137 64 1
0 50 40 48 -40 -40 -1 -1
3 50 40 48 -40 -40 -1 -1
5 50 40 48 55 0 0 0
0 41 32 59 -40 -40 -1 -1
3 41 32 59 -40 -40 -1 -1
5 41 32 59 55 0 48 0
0 58 60 34 -40 -40 -1 -1
3 58 60 34 -40 -40 -1 -1
5 58 60 34 -40 -40 -1 -1
6 58 60 34 0 96 43 0
0 37 31 38 -40 -40 -1 -1
3 37 31 38 -40 -40 -1 -1
5 37 31 38 72 122 50 0
0 52 60 54 -40 -40 -1 -1
3 52 60 54 -40 -40 -1 -1
5 52 60 54 -40 -40 -1 -1
6 52 60 54 47 124 77 1
0 58 59 57 -40 -40 -1 -1
3 58 59 57 -40 -40 -1 -1
5 58 59 57 -40 -40 -1 -1
6 58 59 57 56 0 0 0
0 42 56 56 -40 -40 -1 -1
3 42 56 56 -40 -40 -1 -1
5 42 56 56 -40 -40 -1 -1
6 42 56 56 55 0 57 1
0 40 51 52 -40 -40 -1 -1
3 40 51 52 -40 -40 -1 -1
5 40 51 52 -40 -40 -1 -1
6 40 51 52 0 0 30 1
0 44 39 53 -40 -40 -1 -1
3 44 39 53 -40 -40 -1 -1
5 44 39 53 -40 -40 -1 -1
6 44 39 53 0 52 43 0
0 46 49 56 -40 -40 -1 -1
3 46 49 56 -40 -40 -1 -1
5 46 49 56 -40 -40 -1 -1
6 46 49 56 58 59 0 0
0 36 53 33 -40 -40 -1 -1
3 36 53 33 -40 -40 -1 -1
5 36 53 33 -40 -40 -1 -1
6 36 53 33 0 95 77 0
0 57 49 37 -40 -40 -1 -1
3 57 49 37 -40 -40 -1 -1
5 57 49 37 -40 -40 -1 -1
6 57 49 37 58 42 57 1
0 30 33 31 -40 -40 -1 -1
3 30 33 31 56 97 80 1
0 51 31 34 -40 -40 -1 -1
3 51 31 34 -40 -40 -1 -1
5 51 31 34 -40 -40 -1 -1
6 51 31 34 -40 -40 -1 -1
7 51 31 34 0 0 0 0
0 52 46 41 -40 -40 -1 -1
5 52 46 41 -40 -40 -1 -1
6 52 46 41 -40 -40 -1 -1
7 52 46 41 0 31 0 0
0 55 44 48 -40 -40 -1 -1
5 55 44 48 -40 -40 -1 -1
6 55 44 48 -40 -40 -1 -1
7 55 44 48 0 77 0 0
0 59 37 50 -40 -40 -1 -1
5 59 37 50 -40 -40 -1 -1
6 59 37 50 -40 -40 -1 -1
7 59 37 50 0 121 0 0
0 47 35 41 -40 -40 -1 -1
5 47 35 41 -40 -40 -1 -1
6 47 35 41 -40 -40 -1 -1
7 47 35 41 0 31 41 0
0 51 44 52 -40 -40 -1 -1
5 51 44 52 -40 -40 -1 -1
6 51 44 52 -40 -40 -1 -1
7 51 44 52 0 76 50 1
0 30 54 48 -40 -40 -1 -1
5 30 54 48 -40 -40 -1 -1
6 30 54 48 -40 -40 -1 -1
7 30 54 48 52 0 0 0
0 43 35 57 -40 -40 -1 -1
5 43 35 57 -40 -40 -1 -1
6 43 35 57 -40 -40 -1 -1
7 43 35 57 55 54 0 0
0 38 47 33 -40 -40 -1 -1
5 38 47 33 -40 -40 -1 -1
6 38 47 33 -40 -40 -1 -1
7 38 47 33 59 89 0 0
0 44 43 36 -40 -40 -1 -1
5 44 43 36 -40 -40 -1 -1
6 44 43 36 -40 -40 -1 -1
7 44 43 36 -40 -40 -1 -1
8 44 43 36 0 0 0 0
0 55 41 37 -40 -40 -1 -1
5 55 41 37 -40 -40 -1 -1
7 55 41 37 -40 -40 -1 -1
8 55 41 37 0 43 0 0
0 39 49 50 -40 -40 -1 -1
5 39 49 50 -40 -40 -1 -1
7 39 49 50 59 136 0 1
0 50 38 55 -40 -40 -1 -1
5 50 38 55 -40 -40 -1 -1
7 50 38 55 -40 -40 -1 -1
8 50 38 55 0 0 37 1
0 33 33 30 -40 -40 -1 -1
5 33 33 30 -40 -40 -1 -1
7 33 33 30 0 30 82 0
0 56 32 30 -40 -40 -1 -1
5 56 32 30 -40 -40 -1 -1
7 56 32 30 44 136 50 0
0 35 30 42 -40 -40 -1 -1
5 35 30 42 86 75 0 1
0 57 34 51 -40 -40 -1 -1
5 57 34 51 -40 -40 -1 -1
7 57 34 51 -40 -40 -1 -1
8 57 34 51 0 84 0 0
0 41 55 42 -40 -40 -1 -1
5 41 55 42 -40 -40 -1 -1
7 41 55 42 -40 -40 -1 -1
8 41 55 42 0 118 0 0
0 57 39 52 -40 -40 -1 -1
5 57 39 52 -40 -40 -1 -1
7 57 39 52 -40 -40 -1 -1
8 57 39 52 41 118 0 0
0 34 43 50 -40 -40 -1 -1
5 34 43 50 -40 -40 -1 -1
7 34 43 50 59 89 33 0
0 45 55 55 -40 -40 -1 -1
5 45 55 55 -40 -40 -1 -1
7 45 55 55 -40 -40 -1 -1
8 45 55 55 55 0 0 0
0 54 42 39 -40 -40 -1 -1
5 54 42 39 -40 -40 -1 -1
7 54 42 39 -40 -40 -1 -1
8 54 42 39 57 55 0 0
0 44 45 55 -40 -40 -1 -1
5 44 45 55 -40 -40 -1 -1
7 44 45 55 -40 -40 -1 -1
8 44 45 55 52 0 55 1
0 47 34 59 -40 -40 -1 -1
5 47 34 59 -40 -40 -1 -1
7 47 34 59 82 0 0 1
0 52 31 33 -40 -40 -1 -1
5 52 31 33 -40 -40 -1 -1
7 52 31 33 44 134 80 0
0 35 56 38 -40 -40 -1 -1
5 35 56 38 -40 -40 -1 -1
7 35 56 38 -40 -40 -1 -1
8 35 56 38 0 119 42 0
0 38 51 32 -40 -40 -1 -1
5 38 51 32 -40 -40 -1 -1
7 38 51 32 -40 -40 -1 -1
8 38 51 32 39 116 52 1
0 34 34 43 -40 -40 -1 -1
5 34 34 43 -40 -40 -1 -1
7 34 34 43 -40 -40 -1 -1
8 34 34 43 57 55 39 0
0 30 42 58 -40 -40 -1 -1
5 30 42 58 -40 -40 -1 -1
7 30 42 58 53 53 57 1
0 37 48 58 -40 -40 -1 -1
5 37 48 58 -40 -40 -1 -1
7 37 48 58 -40 -40 -1 -1
8 37 48 58 -40 -40 -1 -1
9 37 48 58 0 0 0 0
0 32 44 47 -40 -40 -1 -1
5 32 44 47 -40 -40 -1 -1
8 32 44 47 -40 -40 -1 -1
9 32 44 47 0 0 58 0
0 60 33 49 50 98 0 0
0 31 58 51 50 96 49 1
0 50 46 37 -40 -40 -1 -1
5 50 46 37 -40 -40 -1 -1
8 50 46 37 -40 -40 -1 -1
9 50 46 37 0 48 0 0
0 45 32 41 -40 -40 -1 -1
5 45 32 41 -40 -40 -1 -1
8 45 32 41 -40 -40 -1 -1
9 45 32 41 0 48 37 0
0 30 53 42 -40 -40 -1 -1
5 30 53 42 -40 -40 -1 -1
8 30 53 42 -40 -40 -1 -1
9 30 53 42 0 94 0 0
0 47 44 30 -40 -40 -1 -1
5 47 44 30 -40 -40 -1 -1
8 47 44 30 -40 -40 -1 -1
9 47 44 30 30 94 0 0
0 57 50 34 -40 -40 -1 -1
5 57 50 34 -40 -40 -1 -1
8 57 50 34 -40 -40 -1 -1
9 57 50 34 50 0 0 0
0 60 51 44 -40 -40 -1 -1
5 60 51 44 -40 -40 -1 -1
8 60 51 44 -40 -40 -1 -1
9 60 51 44 50 50 30 0
0 48 50 55 -40 -40 -1 -1
5 48 50 55 -40 -40 -1 -1
8 48 50 55 -40 -40 -1 -1
9 48 50 55 -40 -40 -1 -1
10 48 50 55 0 0 0 0
5 57 37 41 -40 -40 -1 -1
8 57 37 41 -40 -40 -1 -1
9 57 37 41 30 138 0 0
5 39 48 37 -40 -40 -1 -1
8 39 48 37 -40 -40 -1 -1
9 39 48 37 49 0 34 1
5 48 60 58 -40 -40 -1 -1
8 48 60 58 -40 -40 -1 -1
9 48 60 58 -40 -40 -1 -1
10 48 60 58 0 44 55 1
5 60 47 59 -40 -40 -1 -1
8 60 47 59 -40 -40 -1 -1
9 60 47 59 -40 -40 -1 -1
10 60 47 59 0 86 113 1
5 56 41 56 -40 -40 -1 -1
8 56 41 56 -40 -40 -1 -1
9 56 41 56 -40 -40 -1 -1
10 56 41 56 47 92 0 0
5 52 39 38 -40 -40 -1 -1
8 52 39 38 -40 -40 -1 -1
9 52 39 38 49 50 74 0
5 41 58 56 -40 -40 -1 -1
8 41 58 56 -40 -40 -1 -1
9 41 58 56 -40 -40 -1 -1
10 41 58 56 47 133 0 1
5 59 54 36 -40 -40 -1 -1
8 59 54 36 -40 -40 -1 -1
9 59 54 36 -40 -40 -1 -1
10 59 54 36 47 97 56 1
5 59 59 57 -40 -40 -1 -1
8 59 59 57 -40 -40 -1 -1
9 59 59 57 -40 -40 -1 -1
10 59 59 57 -40 -40 -1 -1
11 59 59 57 0 0 0 0
8 53 46 34 -40 -40 -1 -1
9 53 46 34 -40 -40 -1 -1
10 53 46 34 60 0 0 0
8 59 54 54 -40 -40 -1 -1
9 59 54 54 -40 -40 -1 -1
10 59 54 54 -40 -40 -1 -1
11 59 54 54 0 2 57 1
8 44 38 47 -40 -40 -1 -1
9 44 38 47 -40 -40 -1 -1
10 44 38 47 0 0 55 0
8 38 40 34 39 113 84 1
8 56 37 42 -40 -40 -1 -1
9 56 37 42 -40 -40 -1 -1
10 56 37 42 60 46 0 0
8 51 59 32 -40 -40 -1 -1
9 51 59 32 -40 -40 -1 -1
10 51 59 32 -40 -40 -1 -1
11 51 59 32 0 61 0 0
8 57 57 56 -40 -40 -1 -1
9 57 57 56 -40 -40 -1 -1
10 57 57 56 -40 -40 -1 -1
11 57 57 56 51 61 0 0
8 59 54 60 -40 -40 -1 -1
9 59 54 60 -40 -40 -1 -1
10 59 54 60 -40 -40 -1 -1
11 59 54 60 0 120 0 0
8 42 55 32 -40 -40 -1 -1
9 42 55 32 -40 -40 -1 -1
10 42 55 32 -40 -40 -1 -1
11 42 55 32 0 61 32 0
8 38 46 53 -40 -40 -1 -1
9 38 46 53 -40 -40 -1 -1
10 38 46 53 59 0 34 1
8 51 43 33 -40 -40 -1 -1
9 51 43 33 -40 -40 -1 -1
10 51 43 33 -40 -40 -1 -1
11 51 43 33 0 119 60 1
8 45 33 32 0 117 80 1
8 45 53 52 -40 -40 -1 -1
9 45 53 52 -40 -40 -1 -1
10 45 53 52 -40 -40 -1 -1
11 45 53 52 50 61 56 1
8 37 42 43 -40 -40 -1 -1
9 37 42 43 30 135 41 1
8 60 58 38 -40 -40 -1 -1
9 60 58 38 -40 -40 -1 -1
10 60 58 38 -40 -40 -1 -1
11 60 58 38 58 112 60 1
8 32 49 43 -40 -40 -1 -1
9 32 49 43 45 0 71 1
8 41 45 37 -40 -40 -1 -1
9 41 45 37 -40 -40 -1 -1
10 41 45 37 -40 -40 -1 -1
11 41 45 37 59 0 0 0
8 54 55 40 -40 -40 -1 -1
9 54 55 40 -40 -40 -1 -1
10 54 55 40 -40 -40 -1 -1
11 54 55 40 -40 -40 -1 -1
12 54 55 40 0 0 0 0
8 35 44 60 -40 -40 -1 -1
9 35 44 60 -40 -40 -1 -1
10 35 44 60 60 45 42 1
8 41 43 34 -40 -40 -1 -1
9 41 43 34 -40 -40 -1 -1
10 41 43 34 -40 -40 -1 -1
12 41 43 34 0 0 40 0
8 57 52 45 -40 -40 -1 -1
9 57 52 45 -40 -40 -1 -1
10 57 52 45 -40 -40 -1 -1
12 57 52 45 0 55 0 0
8 49 30 38 0 50 37 0
8 52 51 32 -40 -40 -1 -1
9 52 51 32 -40 -40 -1 -1
10 52 51 32 -40 -40 -1 -1
12 52 51 32 0 52 45 1
8 33 54 41 -40 -40 -1 -1
9 33 54 41 -40 -40 -1 -1
10 33 54 41 -40 -40 -1 -1
12 33 54 41 0 107 0 0
8 49 31 51 -40 -40 -1 -1
9 49 31 51 -40 -40 -1 -1
10 49 31 51 -40 -40 -1 -1
12 49 31 51 33 107 0 0
8 54 47 59 -40 -40 -1 -1
9 54 47 59 -40 -40 -1 -1
10 54 47 59 -40 -40 -1 -1
12 54 47 59 54 0 0 0
8 52 56 50 -40 -40 -1 -1
9 52 56 50 -40 -40 -1 -1
10 52 56 50 -40 -40 -1 -1
12 52 56 50 57 47 0 0
8 53 41 39 -40 -40 -1 -1
9 53 41 39 -40 -40 -1 -1
10 53 41 39 -40 -40 -1 -1
12 53 41 39 0 48 77 1
8 55 31 33 -40 -40 -1 -1
9 55 31 33 -40 -40 -1 -1
10 55 31 33 -40 -40 -1 -1
12 55 31 33 33 138 0 0
8 59 51 54 -40 -40 -1 -1
9 59 51 54 -40 -40 -1 -1
10 59 51 54 -40 -40 -1 -1
12 59 51 54 -40 -40 -1 -1
13 59 51 54 0 0 0 0
8 45 34 46 -40 -40 -1 -1
9 45 34 46 -40 -40 -1 -1
12 45 34 46 54 0 59 0
8 58 50 49 -40 -40 -1 -1
9 58 50 49 -40 -40 -1 -1
12 58 50 49 -40 -40 -1 -1
13 58 50 49 0 51 0 0
8 33 60 39 -40 -40 -1 -1
9 33 60 39 79 101 41 0
8 43 50 44 -40 -40 -1 -1
9 43 50 44 -40 -40 -1 -1
12 43 50 44 56 47 50 1
8 42 32 53 -40 -40 -1 -1
9 42 32 53 -40 -40 -1 -1
12 42 32 53 -40 -40 -1 -1
13 42 32 53 0 0 54 0
8 57 45 47 -40 -40 -1 -1
9 57 45 47 -40 -40 -1 -1
12 57 45 47 -40 -40 -1 -1
13 57 45 47 0 101 0 0
8 51 60 45 -40 -40 -1 -1
9 51 60 45 -40 -40 -1 -1
12 51 60 45 -40 -40 -1 -1
13 51 60 45 41 124 47 1
8 32 44 54 -40 -40 -1 -1
9 32 44 54 -40 -40 -1 -1
12 32 44 54 -40 -40 -1 -1
13 32 44 54 0 51 49 0
8 54 35 55 -40 -40 -1 -1
9 54 35 55 -40 -40 -1 -1
12 54 35 55 -40 -40 -1 -1
13 54 35 55 58 51 0 0
8 38 55 58 -40 -40 -1 -1
9 38 55 58 -40 -40 -1 -1
12 38 55 58 -40 -40 -1 -1
13 38 55 58 59 0 0 1
8 51 58 59 -40 -40 -1 -1
9 51 58 59 -40 -40 -1 -1
12 51 58 59 -40 -40 -1 -1
13 51 58 59 -40 -40 -1 -1
14 51 58 59 0 0 0 0
9 44 38 53 -40 -40 -1 -1
12 44 38 53 -40 -40 -1 -1
13 44 38 53 -40 -40 -1 -1
14 44 38 53 0 0 59 0
9 42 48 38 -40 -40 -1 -1
12 42 48 38 -40 -40 -1 -1
13 42 48 38 -40 -40 -1 -1
14 42 48 38 0 58 0 0
9 48 51 34 -40 -40 -1 -1
12 48 51 34 -40 -40 -1 -1
13 48 51 34 -40 -40 -1 -1
14 48 51 34 0 106 0 0
9 38 50 53 -40 -40 -1 -1
12 38 50 53 -40 -40 -1 -1
13 38 50 53 -40 -40 -1 -1
14 38 50 53 42 58 0 1
9 35 56 32 -40 -40 -1 -1
12 35 56 32 -40 -40 -1 -1
13 35 56 32 -40 -40 -1 -1
14 35 56 32 48 96 0 0
9 40 36 51 -40 -40 -1 -1
12 40 36 51 -40 -40 -1 -1
13 40 36 51 0 95 49 1
9 36 44 55 -40 -40 -1 -1
12 36 44 55 -40 -40 -1 -1
13 36 44 55 -40 -40 -1 -1
14 36 44 55 0 58 38 0
9 38 42 52 -40 -40 -1 -1
12 38 42 52 -40 -40 -1 -1
13 38 42 52 -40 -40 -1 -1
14 38 42 52 0 106 34 0
9 50 48 33 -40 -40 -1 -1
12 50 48 33 -40 -40 -1 -1
13 50 48 33 -40 -40 -1 -1
14 50 48 33 51 0 0 0
9 48 49 45 -40 -40 -1 -1
12 48 49 45 -40 -40 -1 -1
13 48 49 45 -40 -40 -1 -1
14 48 49 45 -40 -40 -1 -1
15 48 49 45 0 0 0 0
9 60 34 38 -40 -40 -1 -1
13 60 34 38 51 86 49 0
9 48 41 44 -40 -40 -1 -1
13 48 41 44 -40 -40 -1 -1
14 48 41 44 38 106 34 1
9 44 59 39 -40 -40 -1 -1
13 44 59 39 -40 -40 -1 -1
14 44 59 39 -40 -40 -1 -1
15 44 59 39 0 49 0 0
9 56 45 57 -40 -40 -1 -1
13 56 45 57 -40 -40 -1 -1
14 56 45 57 -40 -40 -1 -1
15 56 45 57 0 108 0 0
9 54 35 58 -40 -40 -1 -1
13 54 35 58 57 0 58 0
9 57 44 46 -40 -40 -1 -1
13 57 44 46 -40 -40 -1 -1
14 57 44 46 -40 -40 -1 -1
15 57 44 46 44 49 0 0
9 47 46 41 -40 -40 -1 -1
13 47 46 41 -40 -40 -1 -1
14 47 46 41 -40 -40 -1 -1
15 47 46 41 0 104 57 0
9 50 52 38 -40 -40 -1 -1
13 50 52 38 -40 -40 -1 -1
14 50 52 38 -40 -40 -1 -1
15 50 52 38 56 93 0 0
9 56 57 57 -40 -40 -1 -1
13 56 57 57 -40 -40 -1 -1
14 56 57 57 -40 -40 -1 -1
15 56 57 57 -40 -40 -1 -1
16 56 57 57 0 0 0 0
9 58 34 56 -40 -40 -1 -1
14 58 34 56 -40 -40 -1 -1
15 58 34 56 38 49 46 0
9 47 50 58 -40 -40 -1 -1
14 47 50 58 -40 -40 -1 -1
15 47 50 58 -40 -40 -1 -1
16 47 50 58 0 0 57 0
9 37 31 43 -40 -40 -1 -1
14 37 31 43 42 58 53 0
9 54 34 41 -40 -40 -1 -1
14 54 34 41 -40 -40 -1 -1
15 54 34 41 48 0 0 0
9 44 45 50 -40 -40 -1 -1
14 44 45 50 51 0 33 1
9 42 44 38 -40 -40 -1 -1
14 42 44 38 -40 -40 -1 -1
15 42 44 38 0 0 45 0
9 37 42 38 -40 -40 -1 -1
14 37 42 38 38 106 78 0
9 54 34 41 -40 -40 -1 -1
14 54 34 41 -40 -40 -1 -1
15 54 34 41 -40 -40 -1 -1
16 54 34 41 0 57 0 0
9 46 60 50 -40 -40 -1 -1
14 46 60 50 -40 -40 -1 -1
15 46 60 50 -40 -40 -1 -1
16 46 60 50 0 85 41 0
9 34 42 59 -40 -40 -1 -1
14 34 42 59 -40 -40 -1 -1
15 34 42 59 0 49 39 0
9 34 58 59 -40 -40 -1 -1
14 34 58 59 -40 -40 -1 -1
15 34 58 59 -40 -40 -1 -1
16 34 58 59 46 91 0 0
9 58 51 30 -40 -40 -1 -1
14 58 51 30 -40 -40 -1 -1
15 58 51 30 -40 -40 -1 -1
16 58 51 30 56 0 0 0
9 41 49 53 -40 -40 -1 -1
14 41 49 53 -40 -40 -1 -1
15 41 49 53 56 93 38 0
9 40 59 39 -40 -40 -1 -1
14 40 59 39 -40 -40 -1 -1
15 40 59 39 -40 -40 -1 -1
16 40 59 39 57 0 30 1
9 50 35 36 -40 -40 -1 -1
14 50 35 36 -40 -40 -1 -1
15 50 35 36 -40 -40 -1 -1
16 50 35 36 56 0 69 0
9 52 55 60 -40 -40 -1 -1
14 52 55 60 -40 -40 -1 -1
15 52 55 60 -40 -40 -1 -1
16 52 55 60 -40 -40 -1 -1
17 52 55 60 0 0 0 0
9 40 34 38 -40 -40 -1 -1
15 40 34 38 -40 -40 -1 -1
16 40 34 38 56 51 0 0
9 46 41 55 -40 -40 -1 -1
15 46 41 55 -40 -40 -1 -1
16 46 41 55 -40 -40 -1 -1
17 46 41 55 0 0 60 0
9 51 41 36 -40 -40 -1 -1
15 51 41 36 -40 -40 -1 -1
16 51 41 36 -40 -40 -1 -1
17 51 41 36 0 55 0 0
9 42 57 55 -40 -40 -1 -1
15 42 57 55 -40 -40 -1 -1
16 42 57 55 -40 -40 -1 -1
17 42 57 55 0 96 0 0
9 40 57 35 -40 -40 -1 -1
15 40 57 35 -40 -40 -1 -1
16 40 57 35 -40 -40 -1 -1
17 40 57 35 42 96 0 0
9 33 53 44 -40 -40 -1 -1
15 33 53 44 -40 -40 -1 -1
16 33 53 44 46 90 59 0
9 34 60 37 -40 -40 -1 -1
15 34 60 37 48 142 57 1
9 40 42 36 -40 -40 -1 -1
15 40 42 36 -40 -40 -1 -1
16 40 42 36 -40 -40 -1 -1
17 40 42 36 0 94 55 0
9 30 52 50 -40 -40 -1 -1
15 30 52 50 -40 -40 -1 -1
16 30 52 50 80 85 0 0
9 41 46 60 -40 -40 -1 -1
15 41 46 60 -40 -40 -1 -1
16 41 46 60 -40 -40 -1 -1
17 41 46 60 52 0 0 0
9 46 51 51 -40 -40 -1 -1
15 46 51 51 -40 -40 -1 -1
16 46 51 51 -40 -40 -1 -1
17 46 51 51 52 46 0 1
9 38 39 56 -40 -40 -1 -1
15 38 39 56 -40 -40 -1 -1
16 38 39 56 -40 -40 -1 -1
17 38 39 56 46 0 60 0
9 34 35 33 29 134 84 0
9 54 30 60 -40 -40 -1 -1
15 54 30 60 -40 -40 -1 -1
16 54 30 60 -40 -40 -1 -1
17 54 30 60 42 95 36 1
9 59 44 41 -40 -40 -1 -1
15 59 44 41 -40 -40 -1 -1
16 59 44 41 -40 -40 -1 -1
17 59 44 41 -40 -40 -1 -1
18 59 44 41 0 0 0 0
9 33 50 47 -40 -40 -1 -1
16 33 50 47 -40 -40 -1 -1
17 33 50 47 50 55 51 1
9 42 60 46 -40 -40 -1 -1
16 42 60 46 -40 -40 -1 -1
17 42 60 46 -40 -40 -1 -1
18 42 60 46 0 38 41 0
9 41 48 34 -40 -40 -1 -1
16 41 48 34 -40 -40 -1 -1
17 41 48 34 -40 -40 -1 -1
18 41 48 34 0 98 0 0
9 60 60 57 -40 -40 -1 -1
16 60 60 57 -40 -40 -1 -1
17 60 60 57 -40 -40 -1 -1
18 60 60 57 28 115 34 0
9 42 50 57 -40 -40 -1 -1
16 42 50 57 -40 -40 -1 -1
17 42 50 57 -40 -40 -1 -1
18 42 50 57 42 44 0 0
9 32 42 53 -40 -40 -1 -1
16 32 42 53 -40 -40 -1 -1
17 32 42 53 0 55 36 1
9 49 38 31 -40 -40 -1 -1
16 49 38 31 -40 -40 -1 -1
17 49 38 31 -40 -40 -1 -1
18 49 38 31 0 37 87 1
9 53 31 31 78 99 80 1
9 53 36 34 -40 -40 -1 -1
16 53 36 34 -40 -40 -1 -1
17 53 36 34 -40 -40 -1 -1
18 53 36 34 59 0 0 0
9 39 57 37 -40 -40 -1 -1
16 39 57 37 -40 -40 -1 -1
17 39 57 37 -40 -40 -1 -1
18 39 57 37 -40 -40 -1 -1
19 39 57 37 0 0 0 0
16 47 35 53 -40 -40 -1 -1
17 47 35 53 -40 -40 -1 -1
18 47 35 53 42 43 57 1
16 53 51 60 -40 -40 -1 -1
17 53 51 60 -40 -40 -1 -1
18 53 51 60 -40 -40 -1 -1
19 53 51 60 0 57 0 0
16 54 32 30 -40 -40 -1 -1
17 54 32 30 82 92 0 1
16 30 33 34 0 145 0 1
16 57 38 45 -40 -40 -1 -1
17 57 38 45 -40 -40 -1 -1
18 57 38 45 -40 -40 -1 -1
19 57 38 45 0 108 0 0
16 52 40 48 -40 -40 -1 -1
17 52 40 48 -40 -40 -1 -1
18 52 40 48 -40 -40 -1 -1
19 52 40 48 0 53 60 1
16 48 54 35 -40 -40 -1 -1
17 48 54 35 -40 -40 -1 -1
18 48 54 35 -40 -40 -1 -1
19 48 54 35 39 0 0 1
16 54 31 47 -40 -40 -1 -1
17 54 31 47 -40 -40 -1 -1
18 54 31 47 0 0 41 0
16 39 39 41 -40 -40 -1 -1
17 39 39 41 -40 -40 -1 -1
18 39 39 41 -40 -40 -1 -1
19 39 39 41 0 0 37 0
16 48 37 33 -40 -40 -1 -1
17 48 37 33 -40 -40 -1 -1
18 48 37 33 -40 -40 -1 -1
19 48 37 33 39 0 35 0
16 40 51 60 -40 -40 -1 -1
17 40 51 60 -40 -40 -1 -1
18 40 51 60 -40 -40 -1 -1
19 40 51 60 53 48 0 0
16 46 57 30 -40 -40 -1 -1
17 46 57 30 -40 -40 -1 -1
18 46 57 30 -40 -40 -1 -1
19 46 57 30 57 99 0 0
16 35 37 39 80 137 0 0
16 34 41 59 -40 -40 -1 -1
17 34 41 59 -40 -40 -1 -1
18 34 41 59 -40 -40 -1 -1
19 34 41 59 0 108 45 1
16 35 32 37 58 49 38 0
16 53 40 50 -40 -40 -1 -1
17 53 40 50 -40 -40 -1 -1
18 53 40 50 -40 -40 -1 -1
19 53 40 50 40 52 60 0
16 34 31 60 -40 -40 -1 -1
17 34 31 60 -40 -40 -1 -1
18 34 31 60 59 0 34 0
16 48 32 48 -40 -40 -1 -1
17 48 32 48 -40 -40 -1 -1
18 48 32 48 84 36 0 1
16 55 31 37 -40 -40 -1 -1
17 55 31 37 -40 -40 -1 -1
18 55 31 37 -40 -40 -1 -1
19 55 31 37 -40 -40 -1 -1
20 55 31 37 0 0 0 0
16 48 52 54 -40 -40 -1 -1
18 48 52 54 -40 -40 -1 -1
19 48 52 54 -40 -40 -1 -1
20 48 52 54 0 31 0 0
16 44 35 43 -40 -40 -1 -1
18 44 35 43 -40 -40 -1 -1
19 44 35 43 57 99 30 1
16 36 52 47 -40 -40 -1 -1
18 36 52 47 -40 -40 -1 -1
19 36 52 47 -40 -40 -1 -1
20 36 52 47 0 28 54 0
16 41 32 31 -40 -40 -1 -1
18 41 32 31 -40 -40 -1 -1
19 41 32 31 39 0 68 0
16 47 46 42 -40 -40 -1 -1
18 47 46 42 -40 -40 -1 -1
19 47 46 42 -40 -40 -1 -1
20 47 46 42 0 83 0 0
16 57 55 50 -40 -40 -1 -1
18 57 55 50 -40 -40 -1 -1
19 57 55 50 -40 -40 -1 -1
20 57 55 50 47 83 0 0
16 52 40 60 -40 -40 -1 -1
18 52 40 60 -40 -40 -1 -1
19 52 40 60 -40 -40 -1 -1
20 52 40 60 46 83 50 0
16 49 52 37 -40 -40 -1 -1
18 49 52 37 -40 -40 -1 -1
19 49 52 37 -40 -40 -1 -1
20 49 52 37 55 0 0 0
16 50 44 52 -40 -40 -1 -1
18 50 44 52 -40 -40 -1 -1
19 50 44 52 -40 -40 -1 -1
20 50 44 52 48 0 37 0
16 33 48 39 -40 -40 -1 -1
18 33 48 39 -40 -40 -1 -1
19 33 48 39 -40 -40 -1 -1
20 33 48 39 0 138 0 1
16 46 57 49 -40 -40 -1 -1
18 46 57 49 -40 -40 -1 -1
19 46 57 49 -40 -40 -1 -1
20 46 57 49 -40 -40 -1 -1
21 46 57 49 0 0 0 0
18 36 47 57 -40 -40 -1 -1
19 36 47 57 -40 -40 -1 -1
20 36 47 57 48 138 0 1
18 51 45 59 -40 -40 -1 -1
19 51 45 59 -40 -40 -1 -1
20 51 45 59 -40 -40 -1 -1
21 51 45 59 0 57 0 0
18 37 55 54 -40 -40 -1 -1
19 37 55 54 -40 -40 -1 -1
20 37 55 54 -40 -40 -1 -1
21 37 55 54 0 102 0 0
18 57 58 47 -40 -40 -1 -1
19 57 58 47 -40 -40 -1 -1
20 57 58 47 -40 -40 -1 -1
21 57 58 47 37 102 0 0
18 57 43 30 -40 -40 -1 -1
19 57 43 30 -40 -40 -1 -1
20 57 43 30 -40 -40 -1 -1
21 57 43 30 37 105 47 1
18 44 32 60 -40 -40 -1 -1
19 44 32 60 -40 -40 -1 -1
20 44 32 60 48 136 57 0
18 40 42 37 -40 -40 -1 -1
19 40 42 37 -40 -40 -1 -1
20 40 42 37 0 83 42 0
18 50 40 41 -40 -40 -1 -1
19 50 40 41 -40 -40 -1 -1
20 50 40 41 -40 -40 -1 -1
21 50 40 41 0 0 49 1
18 52 41 39 -40 -40 -1 -1
19 52 41 39 -40 -40 -1 -1
20 52 41 39 -40 -40 -1 -1
21 52 41 39 36 102 77 1
18 58 51 37 -40 -40 -1 -1
19 58 51 37 -40 -40 -1 -1
20 58 51 37 -40 -40 -1 -1
21 58 51 37 46 0 0 0
18 45 59 33 -40 -40 -1 -1
19 45 59 33 -40 -40 -1 -1
20 45 59 33 -40 -40 -1 -1
21 45 59 33 47 0 37 1
18 43 33 45 -40 -40 -1 -1
19 43 33 45 -40 -40 -1 -1
20 43 33 45 -40 -40 -1 -1
21 43 33 45 0 57 59 0
18 60 42 58 -40 -40 -1 -1
19 60 42 58 -40 -40 -1 -1
20 60 42 58 -40 -40 -1 -1
21 60 42 58 46 51 59 0
18 45 58 37 -40 -40 -1 -1
19 45 58 37 -40 -40 -1 -1
20 45 58 37 -40 -40 -1 -1
21 45 58 37 -40 -40 -1 -1
22 45 58 37 0 0 0 0
18 48 40 48 -40 -40 -1 -1
19 48 40 48 -40 -40 -1 -1
21 48 40 48 46 0 70 0
18 52 44 44 -40 -40 -1 -1
19 52 44 44 -40 -40 -1 -1
21 52 44 44 -40 -40 -1 -1
22 52 44 44 0 58 0 0
18 49 59 37 -40 -40 -1 -1
19 49 59 37 -40 -40 -1 -1
21 49 59 37 -40 -40 -1 -1
22 49 59 37 0 102 0 0
18 35 39 48 -40 -40 -1 -1
19 35 39 48 -40 -40 -1 -1
21 35 39 48 -40 -40 -1 -1
22 35 39 48 0 0 37 0
18 30 34 37 84 35 48 0
18 42 44 54 -40 -40 -1 -1
19 42 44 54 -40 -40 -1 -1
21 42 44 54 -40 -40 -1 -1
22 42 44 54 0 55 44 0
18 48 47 37 -40 -40 -1 -1
19 48 47 37 -40 -40 -1 -1
21 48 47 37 -40 -40 -1 -1
22 48 47 37 45 0 0 0
18 33 41 38 -40 -40 -1 -1
19 33 41 38 56 97 73 0
18 36 52 33 -40 -40 -1 -1
19 36 52 33 -40 -40 -1 -1
21 36 52 33 -40 -40 -1 -1
22 36 52 33 0 102 37 0
18 46 35 46 -40 -40 -1 -1
19 46 35 46 -40 -40 -1 -1
21 46 35 46 -40 -40 -1 -1
22 46 35 46 0 101 70 1
18 53 39 52 -40 -40 -1 -1
19 53 39 52 -40 -40 -1 -1
21 53 39 52 -40 -40 -1 -1
22 53 39 52 35 0 37 0
18 53 57 33 -40 -40 -1 -1
19 53 57 33 -40 -40 -1 -1
21 53 57 33 -40 -40 -1 -1
22 53 57 33 49 102 0 0
